c Output_time 26.03.2020 18:13:08_+0100 1585242788993922032
c ** Program information **
c program_name                          "QBRG_debug"
c version                               "0.3.20"
c date                                  "25.3.2020"
c gid_id                                "673970833836058123f633335630c185360d632e"
c author                                "Oliver Kullmann"
c url                                   "https://github.com/OKullmann/oklibrary/blob/master/Satisfiability/Transformers/Generators/Random/QBRG.cpp"
c ** Machine information **
c machine_name                          "chyna-Lenovo-G50-70"
c bogomips                              3791.08
c ** Compilation information **
c compiler_version                      "g++ 7.5.0"
c compilation_date                      "Mar_26_2020 11:16:30"
c compilation_options                   "--std=c++17 -pedantic -fmax-errors=5 -Wall -Wextra -g -D_GLIBCXX_DEBUG"
c NDEBUG                                0
c OPTIMIZE                              0
c ** Parameters **
c command-line                          "./QBRG_debug" "e40 a40 40" "92*1,1|2-2,1|3-3,1" "" "1,t" ""
c output                                "QuBlRaGe_120_92_1585242788993751375.qdimacs"
c options                               "filtered,renamed"
c num_quantifier_blocks                 3
c  quantifier_blocks                    1:e1-40 2:a41-80 3:e81-120
c num_clause-blocks                     1
c  clause-blocks                        92 * {1-40,1,1/2} | {41-80,1,1/2} | {81-120,1,1/2}
c num_e-seeds                           30+2=32
c  e-seeds                              1 0 1 0 4 120 2 40 1 40 0 40 1 92 3 1 1 1 1 2 2 2 1 1 2 3 3 1 1 2 1 1585242788993751005
p cnf 111 92
e 1 2 3 4 5 6 7 8 9 10 11 12 13 14 15 16 17 18 19 20 21 22 23 24 25 26 27 28 29 30 31 32 33 34 35 36 37 38 0
a 39 40 41 42 43 44 45 46 47 48 49 50 51 52 53 54 55 56 57 58 59 60 61 62 63 64 65 66 67 68 69 70 71 72 73 74 0
e 75 76 77 78 79 80 81 82 83 84 85 86 87 88 89 90 91 92 93 94 95 96 97 98 99 100 101 102 103 104 105 106 107 108 109 110 111 0
-22 61 -75 0
-3 -39 75 0
-24 51 75 0
-18 52 75 0
6 -53 75 0
4 -65 75 0
-37 39 -76 0
38 74 -76 0
20 -44 -77 0
13 -57 -77 0
16 -53 -78 0
-11 60 -78 0
32 44 78 0
24 -60 78 0
12 41 -79 0
8 -41 80 0
9 -52 80 0
31 52 81 0
2 58 81 0
-23 -41 -82 0
-1 -49 -82 0
30 -44 82 0
-22 67 82 0
12 62 -83 0
20 -74 -84 0
-33 42 85 0
-29 50 85 0
30 -73 85 0
-38 72 -86 0
-2 73 86 0
16 54 87 0
17 -59 87 0
-25 -67 87 0
-23 -68 -88 0
21 -48 88 0
5 42 89 0
6 -52 -90 0
32 -68 -90 0
-16 59 -91 0
34 58 91 0
-14 -59 91 0
9 -70 91 0
6 -72 -92 0
-28 63 -93 0
-24 -65 93 0
-36 -40 -94 0
-30 51 -94 0
-18 68 -94 0
-16 -71 -94 0
-31 -45 94 0
7 -55 95 0
22 56 95 0
30 42 -96 0
-16 55 -96 0
18 49 96 0
34 -70 -97 0
11 -43 97 0
35 50 97 0
-5 73 97 0
-15 -40 98 0
19 -39 -99 0
-33 56 -99 0
-38 -63 99 0
9 64 99 0
32 58 -100 0
33 -42 -101 0
-10 -47 -101 0
-10 -66 -101 0
-37 39 -102 0
37 -49 -102 0
-24 -55 -103 0
37 -73 103 0
25 40 -104 0
33 -63 -104 0
24 -65 -104 0
27 41 104 0
-33 -59 104 0
34 72 104 0
35 48 105 0
-7 -67 105 0
-13 -72 105 0
26 46 106 0
11 57 106 0
5 41 -107 0
23 69 -107 0
-22 -40 -108 0
21 -45 -109 0
-22 -65 -109 0
-33 57 109 0
-30 -70 -110 0
33 63 -111 0
26 49 111 0
